min: 11.3 * x12 + 43.0 * x13 + 44.1 * x14 + 49.3 * x15 + 50.8 * x16 + 60.1 * x17 + 11.3 * x21 + 42.2 * x23 + 45.0 * x24 + 51.5 * x25 + 47.5 * x26 + 57.9 * x27 + 43.0 * x31 + 42.2 * x32 + 6.5 * x34 + 14.6 * x35 + 12.2 * x36 + 17.7 * x37 + 44.1 * x41 + 45.0 * x42 + 6.5 * x43 + 8.3 * x45 + 17.7 * x46 + 20.1 * x47 + 49.3 * x51 + 51.5 * x52 + 14.6 * x53 + 8.3 * x54 + 24.2 * x56 + 23.0 * x57 + 50.8 * x61 + 47.5 * x62 + 12.2 * x63 + 17.7 * x64 + 24.2 * x65 + 11.2 * x67 + 60.1 * x71 + 57.9 * x72 + 17.7 * x73 + 20.1 * x74 + 23.0 * x75 + 11.2 * x76;
x12 + x13 + x14 + x15 + x16 + x17= 1 ;
x21 + x23 + x24 + x25 + x26 + x27= 1 ;
x31 + x32 + x34 + x35 + x36 + x37= 1 ;
x41 + x42 + x43 + x45 + x46 + x47= 1 ;
x51 + x52 + x53 + x54 + x56 + x57= 1 ;
x61 + x62 + x63 + x64 + x65 + x67= 1 ;
x71 + x72 + x73 + x74 + x75 + x76= 1 ;
x21 + x31 + x41 + x51 + x61 + x71= 1 ;
x12 + x32 + x42 + x52 + x62 + x72= 1 ;
x13 + x23 + x43 + x53 + x63 + x73= 1 ;
x14 + x24 + x34 + x54 + x64 + x74= 1 ;
x15 + x25 + x35 + x45 + x65 + x75= 1 ;
x16 + x26 + x36 + x46 + x56 + x76= 1 ;
x17 + x27 + x37 + x47 + x57 + x67= 1 ;
0.0 <= T1 <= 0.0 ;
10.0 <= T2 <= 20.0 ;
120.0 <= T3 <= 150.0 ;
120.0 <= T4 <= 150.0 ;
120.0 <= T5 <= 150.0 ;
60.0 <= T6 <= 80.0 ;
90.0 <= T7 <= 130.0 ;
T2 - T1 - 11.3 - 7.9 + 999999999 - 999999999 * x12 >= 0;
T3 - T1 - 43.0 - 7.9 + 999999999 - 999999999 * x13 >= 0;
T4 - T1 - 44.1 - 7.9 + 999999999 - 999999999 * x14 >= 0;
T5 - T1 - 49.3 - 7.9 + 999999999 - 999999999 * x15 >= 0;
T6 - T1 - 50.8 - 7.9 + 999999999 - 999999999 * x16 >= 0;
T7 - T1 - 60.1 - 7.9 + 999999999 - 999999999 * x17 >= 0;
T1 - T2 - 11.3 - 8.5 + 999999999 - 999999999 * x21 >= 0;
T3 - T2 - 42.2 - 8.5 + 999999999 - 999999999 * x23 >= 0;
T4 - T2 - 45.0 - 8.5 + 999999999 - 999999999 * x24 >= 0;
T5 - T2 - 51.5 - 8.5 + 999999999 - 999999999 * x25 >= 0;
T6 - T2 - 47.5 - 8.5 + 999999999 - 999999999 * x26 >= 0;
T7 - T2 - 57.9 - 8.5 + 999999999 - 999999999 * x27 >= 0;
T1 - T3 - 43.0 - 6.1 + 999999999 - 999999999 * x31 >= 0;
T2 - T3 - 42.2 - 6.1 + 999999999 - 999999999 * x32 >= 0;
T4 - T3 - 6.5 - 6.1 + 999999999 - 999999999 * x34 >= 0;
T5 - T3 - 14.6 - 6.1 + 999999999 - 999999999 * x35 >= 0;
T6 - T3 - 12.2 - 6.1 + 999999999 - 999999999 * x36 >= 0;
T7 - T3 - 17.7 - 6.1 + 999999999 - 999999999 * x37 >= 0;
T1 - T4 - 44.1 - 4.0 + 999999999 - 999999999 * x41 >= 0;
T2 - T4 - 45.0 - 4.0 + 999999999 - 999999999 * x42 >= 0;
T3 - T4 - 6.5 - 4.0 + 999999999 - 999999999 * x43 >= 0;
T5 - T4 - 8.3 - 4.0 + 999999999 - 999999999 * x45 >= 0;
T6 - T4 - 17.7 - 4.0 + 999999999 - 999999999 * x46 >= 0;
T7 - T4 - 20.1 - 4.0 + 999999999 - 999999999 * x47 >= 0;
T1 - T5 - 49.3 - 2.4 + 999999999 - 999999999 * x51 >= 0;
T2 - T5 - 51.5 - 2.4 + 999999999 - 999999999 * x52 >= 0;
T3 - T5 - 14.6 - 2.4 + 999999999 - 999999999 * x53 >= 0;
T4 - T5 - 8.3 - 2.4 + 999999999 - 999999999 * x54 >= 0;
T6 - T5 - 24.2 - 2.4 + 999999999 - 999999999 * x56 >= 0;
T7 - T5 - 23.0 - 2.4 + 999999999 - 999999999 * x57 >= 0;
T1 - T6 - 50.8 - 5.2 + 999999999 - 999999999 * x61 >= 0;
T2 - T6 - 47.5 - 5.2 + 999999999 - 999999999 * x62 >= 0;
T3 - T6 - 12.2 - 5.2 + 999999999 - 999999999 * x63 >= 0;
T4 - T6 - 17.7 - 5.2 + 999999999 - 999999999 * x64 >= 0;
T5 - T6 - 24.2 - 5.2 + 999999999 - 999999999 * x65 >= 0;
T7 - T6 - 11.2 - 5.2 + 999999999 - 999999999 * x67 >= 0;
T1 - T7 - 60.1 - 2.4 + 999999999 - 999999999 * x71 >= 0;
T2 - T7 - 57.9 - 2.4 + 999999999 - 999999999 * x72 >= 0;
T3 - T7 - 17.7 - 2.4 + 999999999 - 999999999 * x73 >= 0;
T4 - T7 - 20.1 - 2.4 + 999999999 - 999999999 * x74 >= 0;
T5 - T7 - 23.0 - 2.4 + 999999999 - 999999999 * x75 >= 0;
T6 - T7 - 11.2 - 2.4 + 999999999 - 999999999 * x76 >= 0;
bin x12, x13, x14, x15, x16, x17, x21, x23, x24, x25, x26, x27, x31, x32, x34, x35, x36, x37, x41, x42, x43, x45, x46, x47, x51, x52, x53, x54, x56, x57, x61, x62, x63, x64, x65, x67, x71, x72, x73, x74,x75,x76;
